\ LP format - for model browsing. Use MPS format to capture full model detail.
Maximize
  101274.5417108 lambda_0_5 + 93926.5417108 lambda_0_6
   + 97787.58171079999 lambda_0_7 + 97286.58171079999 lambda_0_8
   + 90439.58171079999 lambda_0_9 + 97286.58171079999 lambda_0_10
   + 96785.58171079999 lambda_0_11 + 89938.58171079999 lambda_0_12
   + 80084.7252952 lambda_0_13 + 79583.7252952 lambda_0_14
   + 72736.7252952 lambda_0_15 + 79583.7252952 lambda_0_16
   + 79082.7252952 lambda_0_17 + 72235.7252952 lambda_0_18
   + 79583.7252952 lambda_0_19 + 79082.7252952 lambda_0_20
   + 72235.7252952 lambda_0_21 + 93926.5417108 lambda_0_22
   + 93425.5417108 lambda_0_23 + 86578.5417108 lambda_0_24
   + 193149.3076732 lambda_0_25 + 192648.3076732 lambda_0_26
   + 185801.3076732 lambda_0_27 + 79082.7252952 lambda_0_28
   + 78581.7252952 lambda_0_29 + 71734.7252952 lambda_0_30
   + 192648.3076732 lambda_0_31 + 192147.3076732 lambda_0_32
   + 185300.3076732 lambda_0_33 + 192648.3076732 lambda_0_34
   + 192147.3076732 lambda_0_35 + 185300.3076732 lambda_0_36
   + 192147.3076732 lambda_0_37 + 191646.3076732 lambda_0_38
   + 184799.3076732 lambda_0_39 + 77112.12529519999 lambda_0_40
   + 76611.12529519999 lambda_0_41 + 69764.12529519998 lambda_0_42
   + 295370.8590508 lambda_0_43 + 294869.8590508 lambda_0_44
   + 288022.8590508 lambda_0_45 + 294869.8590508 lambda_0_46
   + 294368.8590508 lambda_0_47 + 287521.8590508 lambda_0_48
   + 292171.1390508 lambda_0_49 + 291670.1390508 lambda_0_50
   + 284823.1390508 lambda_0_51 + 291670.1390508 lambda_0_52
   + 291169.1390508 lambda_0_53 + 284322.1390508 lambda_0_54
   + 291670.1390508 lambda_0_55 + 291169.1390508 lambda_0_56
   + 284322.1390508 lambda_0_57 + 291169.1390508 lambda_0_58
   + 290668.1390508 lambda_0_59 + 283821.1390508 lambda_0_60
   + 288523.8590508001 lambda_0_61 + 288022.8590508001 lambda_0_62
   + 281175.8590508001 lambda_0_63 + 101897.6597312 lambda_1_64
   + 94549.65973119999 lambda_1_65 + 98778.0997312 lambda_1_66
   + 98277.0997312 lambda_1_67 + 91430.0997312 lambda_1_68
   + 98277.0997312 lambda_1_69 + 97776.0997312 lambda_1_70
   + 90929.0997312 lambda_1_71 + 81122.80182079999 lambda_1_72
   + 80621.80182079999 lambda_1_73 + 73774.80182079997 lambda_1_74
   + 80621.80182079999 lambda_1_75 + 80120.80182079999 lambda_1_76
   + 73273.80182079997 lambda_1_77 + 194187.3841988 lambda_1_78
   + 193686.3841988 lambda_1_79 + 186839.3841988 lambda_1_80
   + 94549.65973119999 lambda_1_81 + 94048.65973119999 lambda_1_82
   + 87201.65973119999 lambda_1_83 + 193686.3841988 lambda_1_84
   + 193185.3841988 lambda_1_85 + 186338.3841988 lambda_1_86
   + 77762.76182079999 lambda_1_87 + 77261.76182079999 lambda_1_88
   + 70414.76182079998 lambda_1_89 + 295993.9770712 lambda_1_90
   + 295492.9770712 lambda_1_91 + 288645.9770712 lambda_1_92
   + 295492.9770712 lambda_1_93 + 294991.9770712 lambda_1_94
   + 288144.9770712 lambda_1_95 + 293161.6570712 lambda_1_96
   + 292660.6570712 lambda_1_97 + 285813.6570712 lambda_1_98
   + 292660.6570712 lambda_1_99 + 292159.6570712 lambda_1_100
   + 285312.6570712 lambda_1_101 + 292660.6570712 lambda_1_102
   + 292159.6570712 lambda_1_103 + 285312.6570712 lambda_1_104
   + 292159.6570712 lambda_1_105 + 291658.6570712 lambda_1_106
   + 284811.6570712 lambda_1_107 + 289146.9770712 lambda_1_108
   + 288645.9770712 lambda_1_109 + 281798.9770712 lambda_1_110
   + 72041.72154800003 lambda_2_111 + 71540.72154800003 lambda_2_112
   + 64693.72154800002 lambda_2_113 + 71894.76154800002 lambda_2_114
   + 71393.76154800002 lambda_2_115 + 64546.76154800002 lambda_2_116
   + 71540.72154800003 lambda_2_117 + 71039.72154800003 lambda_2_118
   + 64192.72154800002 lambda_2_119 + 103578.3605764 lambda_2_120
   + 96230.3605764 lambda_2_121 + 181566.4768892 lambda_2_122
   + 174218.4768892 lambda_2_123 + 102696.6005764 lambda_2_124
   + 102195.6005764 lambda_2_125 + 95348.6005764 lambda_2_126
   + 102195.6005764 lambda_2_127 + 101694.6005764 lambda_2_128
   + 94847.6005764 lambda_2_129 + 85891.5459784 lambda_2_130
   + 85390.5459784 lambda_2_131 + 78543.5459784 lambda_2_132
   + 85390.5459784 lambda_2_133 + 84889.5459784 lambda_2_134
   + 78042.5459784 lambda_2_135 + 198956.1283564 lambda_2_136
   + 198455.1283564 lambda_2_137 + 191608.1283564 lambda_2_138
   + 198455.1283564 lambda_2_139 + 197954.1283564 lambda_2_140
   + 191107.1283564 lambda_2_141 + 65194.72154800002 lambda_2_142
   + 64693.72154800002 lambda_2_143 + 57846.72154800002 lambda_2_144
   + 65047.76154800002 lambda_2_145 + 64546.76154800002 lambda_2_146
   + 57699.76154800002 lambda_2_147 + 197332.3028844 lambda_2_148
   + 196831.3028844 lambda_2_149 + 189984.3028844 lambda_2_150
   + 64693.72154800002 lambda_2_151 + 64192.72154800002 lambda_2_152
   + 57345.72154800002 lambda_2_153 + 196831.3028844 lambda_2_154
   + 196330.3028844 lambda_2_155 + 189483.3028844 lambda_2_156
   + 193012.1344052 lambda_2_157 + 192511.1344052 lambda_2_158
   + 185664.1344052 lambda_2_159 + 174719.4768892 lambda_2_160
   + 174218.4768892 lambda_2_161 + 167371.4768892 lambda_2_162
   + 174572.5168892 lambda_2_163 + 174071.5168892 lambda_2_164
   + 167224.5168892 lambda_2_165 + 174572.5168892 lambda_2_166
   + 174071.5168892 lambda_2_167 + 167224.5168892 lambda_2_168
   + 174458.9568892 lambda_2_169 + 173957.9568892 lambda_2_170
   + 167110.9568892 lambda_2_171 + 158756.1683356 lambda_2_172
   + 158255.1683356 lambda_2_173 + 151408.1683356 lambda_2_174
   + 272033.3401676 lambda_2_175 + 271532.3401676 lambda_2_176
   + 264685.3401676 lambda_2_177 + 79866.1859784 lambda_2_178
   + 79365.1859784 lambda_2_179 + 72518.18597839998 lambda_2_180
   + 271886.3801676001 lambda_2_181 + 271385.3801676001 lambda_2_182
   + 264538.3801676001 lambda_2_183 + 158402.1283356 lambda_2_184
   + 157901.1283356 lambda_2_185 + 151054.1283356 lambda_2_186
   + 158255.1683356 lambda_2_187 + 157754.1683356 lambda_2_188
   + 150907.1683356 lambda_2_189 + 271532.3401676 lambda_2_190
   + 271031.3401676 lambda_2_191 + 264184.3401676 lambda_2_192
   + 271532.3401676 lambda_2_193 + 271031.3401676 lambda_2_194
   + 264184.3401676 lambda_2_195 + 375903.2742292 lambda_2_196
   + 375402.2742292 lambda_2_197 + 368555.2742292 lambda_2_198
   + 375402.2742292 lambda_2_199 + 374901.2742292 lambda_2_200
   + 368054.2742292 lambda_2_201 + 297080.1579164 lambda_2_202
   + 296579.1579164 lambda_2_203 + 289732.1579164 lambda_2_204
   + 296579.1579164 lambda_2_205 + 296078.1579164 lambda_2_206
   + 289231.1579164 lambda_2_207 + 296579.1579164 lambda_2_208
   + 296078.1579164 lambda_2_209 + 289231.1579164 lambda_2_210
   + 296078.1579164 lambda_2_211 + 295577.1579164 lambda_2_212
   + 288730.1579164 lambda_2_213 + 276417.3336972001 lambda_2_214
   + 275916.3336972001 lambda_2_215 + 269069.3336972001 lambda_2_216
   + 275916.3336972001 lambda_2_217 + 275415.3336972001 lambda_2_218
   + 268568.3336972001 lambda_2_219 + 275916.3336972001 lambda_2_220
   + 275415.3336972001 lambda_2_221 + 268568.3336972001 lambda_2_222
   + 389481.9160752001 lambda_2_223 + 388980.9160752001 lambda_2_224
   + 382133.9160752001 lambda_2_225 + 275415.3336972001 lambda_2_226
   + 274914.3336972001 lambda_2_227 + 268067.3336972001 lambda_2_228
   + 388980.9160752001 lambda_2_229 + 388479.9160752001 lambda_2_230
   + 381632.9160752001 lambda_2_231 + 388980.9160752001 lambda_2_232
   + 388479.9160752001 lambda_2_233 + 381632.9160752001 lambda_2_234
   + 388479.9160752001 lambda_2_235 + 387978.9160752001 lambda_2_236
   + 381131.9160752001 lambda_2_237 + 387858.0906032 lambda_2_238
   + 387357.0906032 lambda_2_239 + 380510.0906032 lambda_2_240
   + 387395.6917452 lambda_2_241 + 386894.6917452 lambda_2_242
   + 380047.6917452 lambda_2_243 + 369103.0342292 lambda_2_244
   + 368602.0342292 lambda_2_245 + 361755.0342292 lambda_2_246
   + 369056.2742292001 lambda_2_247 + 368555.2742292001 lambda_2_248
   + 361708.2742292001 lambda_2_249 + 388105.8360752001 lambda_2_250
   + 387604.8360752001 lambda_2_251 + 380757.8360752001 lambda_2_252
   + 387357.0906032 lambda_2_253 + 386856.0906032 lambda_2_254
   + 380009.0906032 lambda_2_255 + 387357.0906032 lambda_2_256
   + 386856.0906032 lambda_2_257 + 380009.0906032 lambda_2_258
   + 386894.6917452 lambda_2_259 + 386393.6917452 lambda_2_260
   + 379546.6917452 lambda_2_261 + 71283.31030720004 lambda_3_262
   + 70782.31030720004 lambda_3_263 + 63935.31030720003 lambda_3_264
   + 70782.31030720004 lambda_3_265 + 70281.31030720004 lambda_3_266
   + 63434.31030720003 lambda_3_267 + 102299.7712984 lambda_3_268
   + 94951.7712984 lambda_3_269 + 99641.1312984 lambda_3_270
   + 99140.1312984 lambda_3_271 + 92293.1312984 lambda_3_272
   + 99140.1312984 lambda_3_273 + 98639.1312984 lambda_3_274
   + 91792.1312984 lambda_3_275 + 64436.31030720003 lambda_3_276
   + 63935.31030720003 lambda_3_277 + 57088.31030720003 lambda_3_278
   + 81972.473388 lambda_3_279 + 81471.473388 lambda_3_280
   + 74624.473388 lambda_3_281 + 81471.473388 lambda_3_282
   + 80970.473388 lambda_3_283 + 74123.473388 lambda_3_284
   + 195037.055766 lambda_3_285 + 194536.055766 lambda_3_286
   + 187689.055766 lambda_3_287 + 194536.055766 lambda_3_288
   + 194035.055766 lambda_3_289 + 187188.055766 lambda_3_290
   + 94951.7712984 lambda_3_291 + 94450.7712984 lambda_3_292
   + 87603.7712984 lambda_3_293 + 158144.7170948 lambda_3_294
   + 157643.7170948 lambda_3_295 + 150796.7170948 lambda_3_296
   + 78164.87338799999 lambda_3_297 + 77663.87338799999 lambda_3_298
   + 70816.87338799998 lambda_3_299 + 157643.7170948 lambda_3_300
   + 157142.7170948 lambda_3_301 + 150295.7170948 lambda_3_302
   + 296396.0886384 lambda_3_303 + 295895.0886384 lambda_3_304
   + 289048.0886384 lambda_3_305 + 295895.0886384 lambda_3_306
   + 295394.0886384 lambda_3_307 + 288547.0886384 lambda_3_308
   + 294024.6886384 lambda_3_309 + 293523.6886384 lambda_3_310
   + 286676.6886384 lambda_3_311 + 293523.6886384 lambda_3_312
   + 293022.6886384 lambda_3_313 + 286175.6886384 lambda_3_314
   + 293523.6886384 lambda_3_315 + 293022.6886384 lambda_3_316
   + 286175.6886384 lambda_3_317 + 293022.6886384 lambda_3_318
   + 292521.6886384 lambda_3_319 + 285674.6886384 lambda_3_320
   + 254922.7270244001 lambda_3_321 + 254421.7270244001 lambda_3_322
   + 247574.7270244001 lambda_3_323 + 289549.0886384001 lambda_3_324
   + 289048.0886384001 lambda_3_325 + 282201.0886384001 lambda_3_326
   + 254421.7270244001 lambda_3_327 + 253920.7270244001 lambda_3_328
   + 247073.7270244001 lambda_3_329
Subject To
 oneVisitCon0: lambda_0_1 + lambda_0_5 + lambda_0_6 + lambda_0_7
   + lambda_0_8 + lambda_0_9 + lambda_0_10 + lambda_0_11 + lambda_0_12
   + lambda_0_13 + lambda_0_14 + lambda_0_15 + lambda_0_16 + lambda_0_17
   + lambda_0_18 + lambda_0_19 + lambda_0_20 + lambda_0_21 + lambda_0_22
   + lambda_0_23 + lambda_0_24 + lambda_0_25 + lambda_0_26 + lambda_0_27
   + lambda_0_28 + lambda_0_29 + lambda_0_30 + lambda_0_31 + lambda_0_32
   + lambda_0_33 + lambda_0_34 + lambda_0_35 + lambda_0_36 + lambda_0_37
   + lambda_0_38 + lambda_0_39 + lambda_0_40 + lambda_0_41 + lambda_0_42
   + lambda_0_43 + lambda_0_44 + lambda_0_45 + lambda_0_46 + lambda_0_47
   + lambda_0_48 + lambda_0_49 + lambda_0_50 + lambda_0_51 + lambda_0_52
   + lambda_0_53 + lambda_0_54 + lambda_0_55 + lambda_0_56 + lambda_0_57
   + lambda_0_58 + lambda_0_59 + lambda_0_60 + lambda_0_61 + lambda_0_62
   + lambda_0_63 = 1
 oneVisitCon1: lambda_1_2 + lambda_1_64 + lambda_1_65 + lambda_1_66
   + lambda_1_67 + lambda_1_68 + lambda_1_69 + lambda_1_70 + lambda_1_71
   + lambda_1_72 + lambda_1_73 + lambda_1_74 + lambda_1_75 + lambda_1_76
   + lambda_1_77 + lambda_1_78 + lambda_1_79 + lambda_1_80 + lambda_1_81
   + lambda_1_82 + lambda_1_83 + lambda_1_84 + lambda_1_85 + lambda_1_86
   + lambda_1_87 + lambda_1_88 + lambda_1_89 + lambda_1_90 + lambda_1_91
   + lambda_1_92 + lambda_1_93 + lambda_1_94 + lambda_1_95 + lambda_1_96
   + lambda_1_97 + lambda_1_98 + lambda_1_99 + lambda_1_100 + lambda_1_101
   + lambda_1_102 + lambda_1_103 + lambda_1_104 + lambda_1_105
   + lambda_1_106 + lambda_1_107 + lambda_1_108 + lambda_1_109
   + lambda_1_110 = 1
 oneVisitCon2: lambda_2_3 + lambda_2_111 + lambda_2_112 + lambda_2_113
   + lambda_2_114 + lambda_2_115 + lambda_2_116 + lambda_2_117
   + lambda_2_118 + lambda_2_119 + lambda_2_120 + lambda_2_121
   + lambda_2_122 + lambda_2_123 + lambda_2_124 + lambda_2_125
   + lambda_2_126 + lambda_2_127 + lambda_2_128 + lambda_2_129
   + lambda_2_130 + lambda_2_131 + lambda_2_132 + lambda_2_133
   + lambda_2_134 + lambda_2_135 + lambda_2_136 + lambda_2_137
   + lambda_2_138 + lambda_2_139 + lambda_2_140 + lambda_2_141
   + lambda_2_142 + lambda_2_143 + lambda_2_144 + lambda_2_145
   + lambda_2_146 + lambda_2_147 + lambda_2_148 + lambda_2_149
   + lambda_2_150 + lambda_2_151 + lambda_2_152 + lambda_2_153
   + lambda_2_154 + lambda_2_155 + lambda_2_156 + lambda_2_157
   + lambda_2_158 + lambda_2_159 + lambda_2_160 + lambda_2_161
   + lambda_2_162 + lambda_2_163 + lambda_2_164 + lambda_2_165
   + lambda_2_166 + lambda_2_167 + lambda_2_168 + lambda_2_169
   + lambda_2_170 + lambda_2_171 + lambda_2_172 + lambda_2_173
   + lambda_2_174 + lambda_2_175 + lambda_2_176 + lambda_2_177
   + lambda_2_178 + lambda_2_179 + lambda_2_180 + lambda_2_181
   + lambda_2_182 + lambda_2_183 + lambda_2_184 + lambda_2_185
   + lambda_2_186 + lambda_2_187 + lambda_2_188 + lambda_2_189
   + lambda_2_190 + lambda_2_191 + lambda_2_192 + lambda_2_193
   + lambda_2_194 + lambda_2_195 + lambda_2_196 + lambda_2_197
   + lambda_2_198 + lambda_2_199 + lambda_2_200 + lambda_2_201
   + lambda_2_202 + lambda_2_203 + lambda_2_204 + lambda_2_205
   + lambda_2_206 + lambda_2_207 + lambda_2_208 + lambda_2_209
   + lambda_2_210 + lambda_2_211 + lambda_2_212 + lambda_2_213
   + lambda_2_214 + lambda_2_215 + lambda_2_216 + lambda_2_217
   + lambda_2_218 + lambda_2_219 + lambda_2_220 + lambda_2_221
   + lambda_2_222 + lambda_2_223 + lambda_2_224 + lambda_2_225
   + lambda_2_226 + lambda_2_227 + lambda_2_228 + lambda_2_229
   + lambda_2_230 + lambda_2_231 + lambda_2_232 + lambda_2_233
   + lambda_2_234 + lambda_2_235 + lambda_2_236 + lambda_2_237
   + lambda_2_238 + lambda_2_239 + lambda_2_240 + lambda_2_241
   + lambda_2_242 + lambda_2_243 + lambda_2_244 + lambda_2_245
   + lambda_2_246 + lambda_2_247 + lambda_2_248 + lambda_2_249
   + lambda_2_250 + lambda_2_251 + lambda_2_252 + lambda_2_253
   + lambda_2_254 + lambda_2_255 + lambda_2_256 + lambda_2_257
   + lambda_2_258 + lambda_2_259 + lambda_2_260 + lambda_2_261 = 1
 oneVisitCon3: lambda_3_4 + lambda_3_262 + lambda_3_263 + lambda_3_264
   + lambda_3_265 + lambda_3_266 + lambda_3_267 + lambda_3_268
   + lambda_3_269 + lambda_3_270 + lambda_3_271 + lambda_3_272
   + lambda_3_273 + lambda_3_274 + lambda_3_275 + lambda_3_276
   + lambda_3_277 + lambda_3_278 + lambda_3_279 + lambda_3_280
   + lambda_3_281 + lambda_3_282 + lambda_3_283 + lambda_3_284
   + lambda_3_285 + lambda_3_286 + lambda_3_287 + lambda_3_288
   + lambda_3_289 + lambda_3_290 + lambda_3_291 + lambda_3_292
   + lambda_3_293 + lambda_3_294 + lambda_3_295 + lambda_3_296
   + lambda_3_297 + lambda_3_298 + lambda_3_299 + lambda_3_300
   + lambda_3_301 + lambda_3_302 + lambda_3_303 + lambda_3_304
   + lambda_3_305 + lambda_3_306 + lambda_3_307 + lambda_3_308
   + lambda_3_309 + lambda_3_310 + lambda_3_311 + lambda_3_312
   + lambda_3_313 + lambda_3_314 + lambda_3_315 + lambda_3_316
   + lambda_3_317 + lambda_3_318 + lambda_3_319 + lambda_3_320
   + lambda_3_321 + lambda_3_322 + lambda_3_323 + lambda_3_324
   + lambda_3_325 + lambda_3_326 + lambda_3_327 + lambda_3_328
   + lambda_3_329 = 1
 visitedPickupCon0: lambda_0_5 + lambda_0_6 + lambda_0_7 + lambda_0_8
   + lambda_0_9 + lambda_0_10 + lambda_0_11 + lambda_0_12 + lambda_0_22
   + lambda_0_23 + lambda_0_24 + lambda_0_25 + lambda_0_26 + lambda_0_27
   + lambda_0_31 + lambda_0_32 + lambda_0_33 + lambda_0_34 + lambda_0_35
   + lambda_0_36 + lambda_0_37 + lambda_0_38 + lambda_0_39 + lambda_0_43
   + lambda_0_44 + lambda_0_45 + lambda_0_46 + lambda_0_47 + lambda_0_48
   + lambda_0_49 + lambda_0_50 + lambda_0_51 + lambda_0_52 + lambda_0_53
   + lambda_0_54 + lambda_0_55 + lambda_0_56 + lambda_0_57 + lambda_0_58
   + lambda_0_59 + lambda_0_60 + lambda_0_61 + lambda_0_62 + lambda_0_63
   + lambda_1_64 + lambda_1_65 + lambda_1_66 + lambda_1_67 + lambda_1_68
   + lambda_1_69 + lambda_1_70 + lambda_1_71 + lambda_1_78 + lambda_1_79
   + lambda_1_80 + lambda_1_81 + lambda_1_82 + lambda_1_83 + lambda_1_84
   + lambda_1_85 + lambda_1_86 + lambda_1_90 + lambda_1_91 + lambda_1_92
   + lambda_1_93 + lambda_1_94 + lambda_1_95 + lambda_1_96 + lambda_1_97
   + lambda_1_98 + lambda_1_99 + lambda_1_100 + lambda_1_101 + lambda_1_102
   + lambda_1_103 + lambda_1_104 + lambda_1_105 + lambda_1_106
   + lambda_1_107 + lambda_1_108 + lambda_1_109 + lambda_1_110
   + lambda_2_120 + lambda_2_121 + lambda_2_122 + lambda_2_123
   + lambda_2_124 + lambda_2_125 + lambda_2_126 + lambda_2_127
   + lambda_2_128 + lambda_2_129 + lambda_2_136 + lambda_2_137
   + lambda_2_138 + lambda_2_139 + lambda_2_140 + lambda_2_141
   + lambda_2_148 + lambda_2_149 + lambda_2_150 + lambda_2_154
   + lambda_2_155 + lambda_2_156 + lambda_2_157 + lambda_2_158
   + lambda_2_159 + lambda_2_160 + lambda_2_161 + lambda_2_162
   + lambda_2_163 + lambda_2_164 + lambda_2_165 + lambda_2_166
   + lambda_2_167 + lambda_2_168 + lambda_2_169 + lambda_2_170
   + lambda_2_171 + lambda_2_175 + lambda_2_176 + lambda_2_177
   + lambda_2_181 + lambda_2_182 + lambda_2_183 + lambda_2_190
   + lambda_2_191 + lambda_2_192 + lambda_2_193 + lambda_2_194
   + lambda_2_195 + lambda_2_196 + lambda_2_197 + lambda_2_198
   + lambda_2_199 + lambda_2_200 + lambda_2_201 + lambda_2_202
   + lambda_2_203 + lambda_2_204 + lambda_2_205 + lambda_2_206
   + lambda_2_207 + lambda_2_208 + lambda_2_209 + lambda_2_210
   + lambda_2_211 + lambda_2_212 + lambda_2_213 + lambda_2_223
   + lambda_2_224 + lambda_2_225 + lambda_2_229 + lambda_2_230
   + lambda_2_231 + lambda_2_232 + lambda_2_233 + lambda_2_234
   + lambda_2_235 + lambda_2_236 + lambda_2_237 + lambda_2_238
   + lambda_2_239 + lambda_2_240 + lambda_2_241 + lambda_2_242
   + lambda_2_243 + lambda_2_244 + lambda_2_245 + lambda_2_246
   + lambda_2_247 + lambda_2_248 + lambda_2_249 + lambda_2_250
   + lambda_2_251 + lambda_2_252 + lambda_2_253 + lambda_2_254
   + lambda_2_255 + lambda_2_256 + lambda_2_257 + lambda_2_258
   + lambda_2_259 + lambda_2_260 + lambda_2_261 + lambda_3_268
   + lambda_3_269 + lambda_3_270 + lambda_3_271 + lambda_3_272
   + lambda_3_273 + lambda_3_274 + lambda_3_275 + lambda_3_285
   + lambda_3_286 + lambda_3_287 + lambda_3_288 + lambda_3_289
   + lambda_3_290 + lambda_3_291 + lambda_3_292 + lambda_3_293
   + lambda_3_303 + lambda_3_304 + lambda_3_305 + lambda_3_306
   + lambda_3_307 + lambda_3_308 + lambda_3_309 + lambda_3_310
   + lambda_3_311 + lambda_3_312 + lambda_3_313 + lambda_3_314
   + lambda_3_315 + lambda_3_316 + lambda_3_317 + lambda_3_318
   + lambda_3_319 + lambda_3_320 + lambda_3_324 + lambda_3_325
   + lambda_3_326 <= 1
 visitedPickupCon1: lambda_2_111 + lambda_2_112 + lambda_2_113
   + lambda_2_114 + lambda_2_115 + lambda_2_116 + lambda_2_117
   + lambda_2_118 + lambda_2_119 + lambda_2_122 + lambda_2_123
   + lambda_2_142 + lambda_2_143 + lambda_2_144 + lambda_2_145
   + lambda_2_146 + lambda_2_147 + lambda_2_151 + lambda_2_152
   + lambda_2_153 + lambda_2_160 + lambda_2_161 + lambda_2_162
   + lambda_2_163 + lambda_2_164 + lambda_2_165 + lambda_2_166
   + lambda_2_167 + lambda_2_168 + lambda_2_169 + lambda_2_170
   + lambda_2_171 + lambda_2_172 + lambda_2_173 + lambda_2_174
   + lambda_2_175 + lambda_2_176 + lambda_2_177 + lambda_2_181
   + lambda_2_182 + lambda_2_183 + lambda_2_184 + lambda_2_185
   + lambda_2_186 + lambda_2_187 + lambda_2_188 + lambda_2_189
   + lambda_2_190 + lambda_2_191 + lambda_2_192 + lambda_2_193
   + lambda_2_194 + lambda_2_195 + lambda_2_196 + lambda_2_197
   + lambda_2_198 + lambda_2_199 + lambda_2_200 + lambda_2_201
   + lambda_2_244 + lambda_2_245 + lambda_2_246 + lambda_2_247
   + lambda_2_248 + lambda_2_249 + lambda_3_262 + lambda_3_263
   + lambda_3_264 + lambda_3_265 + lambda_3_266 + lambda_3_267
   + lambda_3_276 + lambda_3_277 + lambda_3_278 + lambda_3_294
   + lambda_3_295 + lambda_3_296 + lambda_3_300 + lambda_3_301
   + lambda_3_302 + lambda_3_321 + lambda_3_322 + lambda_3_323
   + lambda_3_327 + lambda_3_328 + lambda_3_329 <= 1
 visitedPickupCon2: lambda_0_43 + lambda_0_44 + lambda_0_45 + lambda_0_46
   + lambda_0_47 + lambda_0_48 + lambda_0_49 + lambda_0_50 + lambda_0_51
   + lambda_0_52 + lambda_0_53 + lambda_0_54 + lambda_0_55 + lambda_0_56
   + lambda_0_57 + lambda_0_58 + lambda_0_59 + lambda_0_60 + lambda_0_61
   + lambda_0_62 + lambda_0_63 + lambda_1_90 + lambda_1_91 + lambda_1_92
   + lambda_1_93 + lambda_1_94 + lambda_1_95 + lambda_1_96 + lambda_1_97
   + lambda_1_98 + lambda_1_99 + lambda_1_100 + lambda_1_101 + lambda_1_102
   + lambda_1_103 + lambda_1_104 + lambda_1_105 + lambda_1_106
   + lambda_1_107 + lambda_1_108 + lambda_1_109 + lambda_1_110
   + lambda_2_196 + lambda_2_197 + lambda_2_198 + lambda_2_199
   + lambda_2_200 + lambda_2_201 + lambda_2_202 + lambda_2_203
   + lambda_2_204 + lambda_2_205 + lambda_2_206 + lambda_2_207
   + lambda_2_208 + lambda_2_209 + lambda_2_210 + lambda_2_211
   + lambda_2_212 + lambda_2_213 + lambda_2_214 + lambda_2_215
   + lambda_2_216 + lambda_2_217 + lambda_2_218 + lambda_2_219
   + lambda_2_220 + lambda_2_221 + lambda_2_222 + lambda_2_223
   + lambda_2_224 + lambda_2_225 + lambda_2_226 + lambda_2_227
   + lambda_2_228 + lambda_2_229 + lambda_2_230 + lambda_2_231
   + lambda_2_232 + lambda_2_233 + lambda_2_234 + lambda_2_235
   + lambda_2_236 + lambda_2_237 + lambda_2_238 + lambda_2_239
   + lambda_2_240 + lambda_2_241 + lambda_2_242 + lambda_2_243
   + lambda_2_244 + lambda_2_245 + lambda_2_246 + lambda_2_247
   + lambda_2_248 + lambda_2_249 + lambda_2_250 + lambda_2_251
   + lambda_2_252 + lambda_2_253 + lambda_2_254 + lambda_2_255
   + lambda_2_256 + lambda_2_257 + lambda_2_258 + lambda_2_259
   + lambda_2_260 + lambda_2_261 + lambda_3_303 + lambda_3_304
   + lambda_3_305 + lambda_3_306 + lambda_3_307 + lambda_3_308
   + lambda_3_309 + lambda_3_310 + lambda_3_311 + lambda_3_312
   + lambda_3_313 + lambda_3_314 + lambda_3_315 + lambda_3_316
   + lambda_3_317 + lambda_3_318 + lambda_3_319 + lambda_3_320
   + lambda_3_321 + lambda_3_322 + lambda_3_323 + lambda_3_324
   + lambda_3_325 + lambda_3_326 + lambda_3_327 + lambda_3_328
   + lambda_3_329 <= 1
 visitedPickupCon3: lambda_0_13 + lambda_0_14 + lambda_0_15 + lambda_0_16
   + lambda_0_17 + lambda_0_18 + lambda_0_19 + lambda_0_20 + lambda_0_21
   + lambda_0_25 + lambda_0_26 + lambda_0_27 + lambda_0_28 + lambda_0_29
   + lambda_0_30 + lambda_0_31 + lambda_0_32 + lambda_0_33 + lambda_0_34
   + lambda_0_35 + lambda_0_36 + lambda_0_37 + lambda_0_38 + lambda_0_39
   + lambda_0_40 + lambda_0_41 + lambda_0_42 + lambda_1_72 + lambda_1_73
   + lambda_1_74 + lambda_1_75 + lambda_1_76 + lambda_1_77 + lambda_1_78
   + lambda_1_79 + lambda_1_80 + lambda_1_84 + lambda_1_85 + lambda_1_86
   + lambda_1_87 + lambda_1_88 + lambda_1_89 + lambda_2_130 + lambda_2_131
   + lambda_2_132 + lambda_2_133 + lambda_2_134 + lambda_2_135
   + lambda_2_136 + lambda_2_137 + lambda_2_138 + lambda_2_139
   + lambda_2_140 + lambda_2_141 + lambda_2_148 + lambda_2_149
   + lambda_2_150 + lambda_2_154 + lambda_2_155 + lambda_2_156
   + lambda_2_157 + lambda_2_158 + lambda_2_159 + lambda_2_172
   + lambda_2_173 + lambda_2_174 + lambda_2_175 + lambda_2_176
   + lambda_2_177 + lambda_2_178 + lambda_2_179 + lambda_2_180
   + lambda_2_181 + lambda_2_182 + lambda_2_183 + lambda_2_184
   + lambda_2_185 + lambda_2_186 + lambda_2_187 + lambda_2_188
   + lambda_2_189 + lambda_2_190 + lambda_2_191 + lambda_2_192
   + lambda_2_193 + lambda_2_194 + lambda_2_195 + lambda_2_214
   + lambda_2_215 + lambda_2_216 + lambda_2_217 + lambda_2_218
   + lambda_2_219 + lambda_2_220 + lambda_2_221 + lambda_2_222
   + lambda_2_223 + lambda_2_224 + lambda_2_225 + lambda_2_226
   + lambda_2_227 + lambda_2_228 + lambda_2_229 + lambda_2_230
   + lambda_2_231 + lambda_2_232 + lambda_2_233 + lambda_2_234
   + lambda_2_235 + lambda_2_236 + lambda_2_237 + lambda_2_238
   + lambda_2_239 + lambda_2_240 + lambda_2_241 + lambda_2_242
   + lambda_2_243 + lambda_2_250 + lambda_2_251 + lambda_2_252
   + lambda_2_253 + lambda_2_254 + lambda_2_255 + lambda_2_256
   + lambda_2_257 + lambda_2_258 + lambda_2_259 + lambda_2_260
   + lambda_2_261 + lambda_3_279 + lambda_3_280 + lambda_3_281
   + lambda_3_282 + lambda_3_283 + lambda_3_284 + lambda_3_285
   + lambda_3_286 + lambda_3_287 + lambda_3_288 + lambda_3_289
   + lambda_3_290 + lambda_3_294 + lambda_3_295 + lambda_3_296
   + lambda_3_297 + lambda_3_298 + lambda_3_299 + lambda_3_300
   + lambda_3_301 + lambda_3_302 <= 1
Bounds
End
